<number of tasks>
50

<cycle time>
1000

<order strength>
0.597


<task times>
1 148
2 30
3 505
4 27
5 317
6 234
7 152
8 85
9 124
10 257
11 77
12 514
13 212
14 105
15 497
16 133
17 206
18 145
19 122
20 303
21 464
22 55
23 209
24 105
25 466
26 456
27 228
28 290
29 140
30 71
31 275
32 160
33 109
34 42
35 408
36 419
37 223
38 28
39 24
40 278
41 368
42 445
43 272
44 201
45 103
46 476
47 187
48 368
49 501
50 423

<precedence relations>
1,12
1,13
2,12
2,25
2,26
3,9
3,10
3,12
4,13
5,9
5,14
5,17
6,11
6,12
6,29
6,30
7,9
8,12
8,31
9,20
9,25
9,29
9,30
9,38
10,14
10,15
10,16
10,17
11,16
11,36
12,28
13,14
13,17
14,18
15,24
15,29
15,30
15,31
16,19
16,28
16,31
17,19
17,22
17,26
18,19
18,20
18,21
18,22
19,27
19,32
19,50
20,33
20,36
20,40
21,24
21,25
21,26
22,23
22,24
22,29
22,30
23,28
23,31
24,28
25,45
26,29
26,30
27,48
28,32
28,35
28,38
29,37
29,46
29,48
30,32
30,36
31,33
31,34
31,37
31,41
32,40
33,43
34,49
35,43
36,39
36,41
38,45
39,42
39,43
40,43
40,44
41,43
41,44
41,45
42,50
43,46
43,47
43,48
44,49
45,47
45,50

<end>
